NAME : portcgen-18-18
COMMENT : portcgen N=18, seed=18
TYPE : TSP
DIMENSION : 18
EDGE_WEIGHT_TYPE : EUC_2D
NODE_COORD_SECTION
1 292084 98114
2 -272834 444447
3 160449 583032
4 156606 108580
5 92316 177131
6 -190921 196010
7 -65462 328437
8 -385694 -352951
9 135717 265898
10 288052 184206
11 398664 -272985
12 120923 -396743
13 -75877 -74070
14 90262 293425
15 174698 -579616
16 -8323 316166
17 45258 -97941
18 -13900 5907
